set DOMAINS := 1 2;
set STRATA[1] := 1 2 3 4 5;
set STRATA[2] := 1 2;

param N :=
	1 1 100
	1 2 100
	1 3 100
	1 4 100
	1 5 100
	2 1 100
	2 2 100;

param M :=
	1 1 80
	1 2 90
	1 3 70
	1 4 40
	1 5 10
	2 1 90
	2 2 100;

param S :=
	1 1 154
	1 2 178
	1 3 134
	1 4 213
	1 5 124
	2 1 102
	2 2 12;
	
param total :=
	1 13
	2 2;
	
param kappa :=
	1 0.8
	2 0.2;

param n := 150;
